Version identifier: 12.10.0.0 | 2019-11-26 | 843d4de
CPXPARAM_WorkMem                                 28672
Tried aggregator 2 times.
Aggregator did 30 substitutions.
Reduced MIP has 139 rows, 180 columns, and 652 nonzeros.
Reduced MIP has 180 binaries, 0 generals, 0 SOSs, and 0 indicators.
Presolve time = 0,00 sec. (0,60 ticks)
Found incumbent of value 568,000000 after 0,00 sec. (1,38 ticks)
Probing time = 0,00 sec. (0,20 ticks)
Tried aggregator 1 time.
Detecting symmetries...
MIP Presolve eliminated 32 rows and 0 columns.
MIP Presolve added 64 rows and 0 columns.
Reduced MIP has 171 rows, 180 columns, and 684 nonzeros.
Reduced MIP has 180 binaries, 0 generals, 0 SOSs, and 0 indicators.
Presolve time = 0,00 sec. (0,81 ticks)
Probing time = 0,00 sec. (0,20 ticks)
Clique table members: 427.
MIP emphasis: balance optimality and feasibility.
MIP search method: dynamic search.
Parallel mode: deterministic, using up to 16 threads.
Root relaxation solution time = 0,00 sec. (0,75 ticks)

        Nodes                                         Cuts/
   Node  Left     Objective  IInf  Best Integer    Best Bound    ItCnt     Gap

*     0+    0                          568,0000        0,0000           100,00%
*     0+    0                          371,0000        0,0000           100,00%
*     0+    0                          357,0000        0,0000           100,00%
*     0+    0                          327,0000        0,0000           100,00%
      0     0      142,0000   129      327,0000      142,0000      100   56,57%
      0     0      142,0000   129      327,0000     Cuts: 114      170   56,57%
      0     0      144,0609   129      327,0000     Cuts: 146      298   55,94%
      0     0      145,7989   129      327,0000     Cuts: 142      360   55,41%
      0     0      146,3062   129      327,0000      Cuts: 95      386   55,26%
      0     0      146,3356   129      327,0000   ZeroHalf: 1      401   55,25%
      0     0      171,6291   129      327,0000     Cuts: 142      557   47,51%
      0     0      173,5311   129      327,0000     Cuts: 120      613   46,93%
      0     0      174,2546   129      327,0000      Cuts: 93      660   46,71%
      0     0      174,8704   129      327,0000      Cuts: 88      684   46,52%
      0     0      175,1060   129      327,0000   ZeroHalf: 2      702   46,45%
      0     0      175,1460   129      327,0000   ZeroHalf: 3      706   46,44%
      0     0      175,2876   129      327,0000      Cuts: 27      720   46,40%
      0     0      175,5934   129      327,0000   ZeroHalf: 2      735   46,30%
      0     0      175,6053   129      327,0000      Cuts: 28      740   46,30%
*     0+    0                          301,0000      175,6053            41,66%
*     0+    0                          300,0000      175,6053            41,46%
      0     2      175,6053   167      300,0000      183,0667      740   38,98%
Elapsed time = 0,18 sec. (81,64 ticks, tree = 0,02 MB, solutions = 6)
*   453+   78                          299,0000      203,3640            31,99%
*   502    89      integral     0      298,0000      203,3640     8639   31,76%

Clique cuts applied:  63
Cover cuts applied:  177
Mixed integer rounding cuts applied:  63
Zero-half cuts applied:  7
Gomory fractional cuts applied:  3

Root node processing (before b&c):
  Real time             =    0,17 sec. (81,45 ticks)
Parallel b&c, 16 threads:
  Real time             =    0,08 sec. (53,27 ticks)
  Sync time (average)   =    0,03 sec.
  Wait time (average)   =    0,00 sec.
                          ------------
Total (root+branch&cut) =    0,26 sec. (134,72 ticks)
